120
150
49
26
99
24
77
74
50
27
32
50
27
44
41
77
96
66
56
28
76
28
53
33
42
66
86
44
65
49
85
41
65
76
44
53
75
22
94
23
56
69
46
74
49
73
29
41
48
51
99
62
56
42
29
69
74
33
52
69
55
27
88
36
99
24
77
77
77
86
20
26
83
51
38
80
91
33
62
87
32
99
98
89
94
99
52
91
94
51
51
73
27
64
29
99
51
52
62
73
29
99
99
50
70
66
86
51
73
88
99
99
61
51
30
51
62
99
99
64
50
26
